SPARKNaCl/why3-z3/sparknacl-utils.adb_34_33_range_check5_1.smt2
;; produced by z3_gnatprove.drv ;;
(set-info :smt-lib-version 2.5)
(set-info :source |VC generated by SPARK 2014|)
(set-info :category industrial)
(set-info :status unknown)
;;; generated by SMT-LIB2 driver
;;; SMT-LIB2 driver: bit-vectors, common part
;;; SMT-LIB2: integer arithmetic
(declare-datatypes ()
  ((int__ref (int__refqtmk (int__content Int)))))

(declare-datatypes ()
  ((t__ref (t__refqtmk (t__content (_ BitVec 32))))))

(declare-sort byte 0)

(declare-datatypes ()
  ((byte__init_wrapper
   (byte__init_wrapperqtmk (rec__value byte)(us_attr__init Bool)))))

(declare-sort map1 0)

(declare-datatypes ()
  ((map__ref (map__refqtmk (map__content map1)))))

;; "has_bounds"
(declare-fun has_bounds (map1
  Int
  Int) Bool)

;; "get"
(declare-fun get (map1
  Int) byte__init_wrapper)

;; "set"
(declare-fun set (map1
  Int
  byte__init_wrapper) map1)

;; "set_eq"
(assert
  (forall ((a map1) (i Int) (v byte__init_wrapper))
    (! (= (get (set a i v) i) v) :pattern ((set a i v)) )))

;; "set_neq"
(assert
  (forall ((a map1) (i Int) (v byte__init_wrapper))
    (! (forall ((j Int))
         (! (=> (not (= i j)) (= (get (set a i v) j) (get a j))) :pattern (
         (get
           a
           j)) :pattern ((get (set a i v) j)) )) :pattern ((set a i v)) )))

;; "set_has_bounds"
(assert
  (forall ((a map1) (i Int) (f Int) (l Int) (v byte__init_wrapper))
    (! (=>
         (and (<= f i) (<= i l))
         (=> (has_bounds a f l) (has_bounds (set a i v) f l))) :pattern (
    (has_bounds
      (set a i v)
      f
      l)) )))

;; "slice"
(declare-fun slice (map1
  Int
  Int) map1)

;; "slice_eq"
(assert
  (forall ((a map1) (f Int) (l Int))
    (! (=> (has_bounds a f l) (= (slice a f l) a)) :pattern ((slice a f l)
    (has_bounds a f l)) )))

;; "slice_slice"
(assert
  (forall ((a map1) (f1 Int) (l1 Int) (f2 Int) (l2 Int))
    (! (=>
         (and (<= f1 f2) (<= l2 l1))
         (= (slice (slice a f1 l1) f2 l2) (slice a f2 l2))) :pattern (
    (slice
      (slice a f1 l1)
      f2
      l2)) )))

;; "slice_def"
(assert
  (forall ((a map1) (f Int) (l Int))
    (! (forall ((i Int))
         (! (=> (and (<= f i) (<= i l)) (= (get (slice a f l) i) (get a i))) :pattern (
         (get
           (slice a f l)
           i)) :pattern ((get a i)) )) :pattern ((slice a f l)) )))

;; "slice_has_bounds"
(assert
  (forall ((a map1) (f Int) (l Int))
    (! (has_bounds (slice a f l) f l) :pattern ((has_bounds
                                                  (slice a f l)
                                                  f
                                                  l)) )))

(declare-const input (_ BitVec 32))

;; "to_rep"
(declare-fun to_rep (byte) (_ BitVec 8))

;; "of_rep"
(declare-fun of_rep ((_ BitVec 8)) byte)

;; "inversion_axiom"
(assert
  (forall ((x byte)) (! (= (of_rep (to_rep x)) x) :pattern ((to_rep x)) )))

;; "range_axiom"
(assert true)

;; "coerce_axiom"
(assert
  (forall ((x (_ BitVec 8)))
    (! (= (to_rep (of_rep x)) x) :pattern ((to_rep (of_rep x))) )))

(declare-sort tinteger_32B 0)

;; "tinteger_32B'int"
(declare-fun tinteger_32Bqtint (tinteger_32B) Int)

;; "tinteger_32B'axiom"
(assert
  (forall ((i tinteger_32B))
    (and
      (<= (- 2147483648) (tinteger_32Bqtint i))
      (<= (tinteger_32Bqtint i) 2147483647))))

;; "in_range"
(define-fun in_range ((x Int)) Bool
  (and (<= (- 2147483648) x) (<= x 2147483647)))

;; "to_rep"
(define-fun to_rep1 ((x tinteger_32B)) Int
  (tinteger_32Bqtint x))

;; "of_rep"
(declare-fun of_rep1 (Int) tinteger_32B)

;; "inversion_axiom"
(assert
  (forall ((x tinteger_32B))
    (! (= (of_rep1 (to_rep1 x)) x) :pattern ((to_rep1 x)) )))

;; "range_axiom"
(assert
  (forall ((x tinteger_32B))
    (! (in_range (to_rep1 x)) :pattern ((to_rep1 x)) )))

;; "coerce_axiom"
(assert
  (forall ((x Int))
    (! (=> (in_range x) (= (to_rep1 (of_rep1 x)) x)) :pattern ((to_rep1
                                                                 (of_rep1 x))) )))

(declare-datatypes ()
  ((t (tqtmk (rec__first tinteger_32B)(rec__last tinteger_32B)))))

;; "mk"
(declare-fun mk (Int
  Int) t)

;; "mk_def"
(assert
  (forall ((f Int) (l Int))
    (! (=>
         (in_range f)
         (=>
           (in_range l)
           (and
             (= (to_rep1 (rec__first (mk f l))) f)
             (= (to_rep1 (rec__last (mk f l))) l)))) :pattern ((mk f l)) )))

(declare-datatypes ()
  ((us_t (us_tqtmk (elts map1)(rt t)))))

;; "of_array"
(define-fun of_array ((a map1) (f Int) (l Int)) us_t
  (us_tqtmk a (mk f l)))

(declare-const output map1)

;; "output'unused"
(define-fun outputqtunused () map__ref
  (map__refqtmk output))

;; "Assume"
(assert (has_bounds output 0 3))

;; "Assume"
(assert true)

(declare-const x (_ BitVec 32))

;; "x'unused"
(define-fun xqtunused () t__ref
  (t__refqtmk x))

;; "H"
(assert (= x input))

;; "Assume"
(assert true)

;; "t__content'result'unused"
(define-fun t__contentqtresultqtunused () (_ BitVec 32)
  x)

;; "o"
(define-fun o () (_ BitVec 32)
  (bvand x #x000000FF))

;; "bw_and'result'unused"
(define-fun bw_andqtresultqtunused () (_ BitVec 32)
  o)

;; "o"
(define-fun o1 () (_ BitVec 32)
  ((_ zero_extend 24) #xFF))

;; "toBig'result'unused"
(define-fun toBigqtresultqtunused () (_ BitVec 32)
  o1)

;; "o"
(define-fun o2 () (_ BitVec 32)
  ((_ zero_extend 24) #x00))

;; "toBig'result'unused"
(define-fun toBigqtresultqtunused1 () (_ BitVec 32)
  o2)

;; "range_check_'result'unused"
(define-fun range_check_qtresultqtunused () (_ BitVec 32)
  o)

;; "o"
(define-fun o3 () (_ BitVec 8)
  ((_ extract 7 0) o))

;; "toSmall'result'unused"
(define-fun toSmallqtresultqtunused () (_ BitVec 8)
  o3)

(declare-const o4 byte)

;; "Ensures"
(assert (= (to_rep o4) o3))

;; "of_rep'result'unused"
(define-fun of_repqtresultqtunused () byte
  o4)

;; "o"
(define-fun o5 () byte__init_wrapper
  (byte__init_wrapperqtmk o4 true))

;; "to_wrapper'result'unused"
(define-fun to_wrapperqtresultqtunused () byte__init_wrapper
  o5)

;; "map__content'result'unused"
(define-fun map__contentqtresultqtunused () map1
  output)

;; "o"
(define-fun o6 () map1
  (set output 3 o5))

;; "set'result'unused"
(define-fun setqtresultqtunused () map1
  o6)

(declare-const output1 map1)

;; "output'unused"
(define-fun outputqtunused1 () map__ref
  (map__refqtmk output1))

;; "H"
(assert (= output1 o6))

;; "Assert"
(assert (= (us_attr__init (get output1 3)) true))

(declare-const i Int)

;; "i'unused"
(define-fun iqtunused () int__ref
  (int__refqtmk i))

;; "H"
(assert (= i 2))

;; "int__content'result'unused"
(define-fun int__contentqtresultqtunused () Int
  i)

;; "o"
(define-fun o7 () Bool
  (ite (<= i 2) true false))

;; "infix <='result'unused"
(define-fun infix_lseqqtresultqtunused () Bool
  o7)

;; "int__content'result'unused"
(define-fun int__contentqtresultqtunused1 () Int
  i)

;; "o"
(define-fun o8 () Bool
  (ite (<= 0 i) true false))

;; "infix <='result'unused"
(define-fun infix_lseqqtresultqtunused1 () Bool
  o8)

;; "o"
(define-fun o9 () Bool
  (and o8 o7))

;; "andb'result'unused"
(define-fun andbqtresultqtunused () Bool
  o9)

;; "H"
(assert (= o9 true))

;; "temp___loop_entry_696'unused"
(define-fun temp___loop_entry_696qtunused () map1
  output1)

;; "map__content'result'unused"
(define-fun map__contentqtresultqtunused1 () map1
  output1)

;; "temp___loop_entry_694'unused"
(define-fun temp___loop_entry_694qtunused () (_ BitVec 32)
  x)

;; "t__content'result'unused"
(define-fun t__contentqtresultqtunused1 () (_ BitVec 32)
  x)

;; "o"
(define-fun o10 () (_ BitVec 32)
  ((_ int2bv 32) 8))

;; "of_int'result'unused"
(define-fun of_intqtresultqtunused () (_ BitVec 32)
  o10)

;; "t__content'result'unused"
(define-fun t__contentqtresultqtunused2 () (_ BitVec 32)
  x)

;; "o"
(define-fun o11 () (_ BitVec 32)
  (bvlshr x o10))

;; "lsr_bv'result'unused"
(define-fun lsr_bvqtresultqtunused () (_ BitVec 32)
  o11)

(declare-const x1 (_ BitVec 32))

;; "x'unused"
(define-fun xqtunused1 () t__ref
  (t__refqtmk x1))

;; "H"
(assert (= x1 o11))

;; "t__content'result'unused"
(define-fun t__contentqtresultqtunused3 () (_ BitVec 32)
  x1)

;; "o"
(define-fun o12 () (_ BitVec 32)
  (bvand x1 #x000000FF))

;; "bw_and'result'unused"
(define-fun bw_andqtresultqtunused1 () (_ BitVec 32)
  o12)

;; "o"
(define-fun o13 () (_ BitVec 32)
  ((_ zero_extend 24) #xFF))

;; "toBig'result'unused"
(define-fun toBigqtresultqtunused2 () (_ BitVec 32)
  o13)

;; "o"
(define-fun o14 () (_ BitVec 32)
  ((_ zero_extend 24) #x00))

;; "toBig'result'unused"
(define-fun toBigqtresultqtunused3 () (_ BitVec 32)
  o14)

;; "range_check_'result'unused"
(define-fun range_check_qtresultqtunused1 () (_ BitVec 32)
  o12)

;; "o"
(define-fun o15 () (_ BitVec 8)
  ((_ extract 7 0) o12))

;; "toSmall'result'unused"
(define-fun toSmallqtresultqtunused1 () (_ BitVec 8)
  o15)

(declare-const o16 byte)

;; "Ensures"
(assert (= (to_rep o16) o15))

;; "of_rep'result'unused"
(define-fun of_repqtresultqtunused1 () byte
  o16)

;; "o"
(define-fun o17 () byte__init_wrapper
  (byte__init_wrapperqtmk o16 true))

;; "to_wrapper'result'unused"
(define-fun to_wrapperqtresultqtunused1 () byte__init_wrapper
  o17)

;; "int__content'result'unused"
(define-fun int__contentqtresultqtunused2 () Int
  i)

;; "map__content'result'unused"
(define-fun map__contentqtresultqtunused2 () map1
  output1)

;; "o"
(define-fun o18 () map1
  (set output1 i o17))

;; "set'result'unused"
(define-fun setqtresultqtunused1 () map1
  o18)

(declare-const output2 map1)

;; "output'unused"
(define-fun outputqtunused2 () map__ref
  (map__refqtmk output2))

;; "H"
(assert (= output2 o18))

;; "int__content'result'unused"
(define-fun int__contentqtresultqtunused3 () Int
  i)

;; "map__content'result'unused"
(define-fun map__contentqtresultqtunused3 () map1
  output2)

;; "Assert"
(assert (=> (<= i 3) (and (and (<= 0 i) (<= i 3)) (and (<= 0 3) (<= 3 3)))))

;; "o"
(define-fun o19 () map1
  (slice output2 i 3))

;; "slice'result'unused"
(define-fun sliceqtresultqtunused () map1
  o19)

;; "temp___703"
(define-fun temp___703 () us_t
  (of_array o19 i 3))

;; "of_array'result'unused"
(define-fun of_arrayqtresultqtunused () us_t
  temp___703)

;; "_f'unused"
(define-fun usfqtunused () Bool
  (ite (forall ((temp___704 Int))
         (=>
           (and (<= i temp___704) (<= temp___704 3))
           (= (us_attr__init (get o19 temp___704)) true)))
    true
    false))

;; "any'result'unused"
(define-fun anyqtresultqtunused () Bool
  (ite (forall ((temp___704 Int))
         (=>
           (and (<= i temp___704) (<= temp___704 3))
           (= (us_attr__init (get o19 temp___704)) true)))
    true
    false))

(declare-const output3 map1)

(declare-const x2 (_ BitVec 32))

(declare-const i1 Int)

;; "i'unused"
(define-fun iqtunused1 () int__ref
  (int__refqtmk i1))

;; "x'unused"
(define-fun xqtunused2 () t__ref
  (t__refqtmk x2))

;; "output'unused"
(define-fun outputqtunused3 () map__ref
  (map__refqtmk output3))

;; "LoopInvariant"
(assert
  (forall ((temp___711 Int))
    (=>
      (and (<= i1 temp___711) (<= temp___711 3))
      (= (us_attr__init (get (slice output3 i1 3) temp___711)) true))))

;; "Assume"
(assert
  (= (and (ite (and
                 (has_bounds output3 0 3)
                 (forall ((temp___697 Int))
                   (=>
                     (and (<= 0 temp___697) (<= temp___697 3))
                     (=>
                       (or
                         (< 2 temp___697)
                         (or (< temp___697 0) (< temp___697 i1)))
                       (= (get output3 temp___697) (get output1 temp___697))))))
            true
            false) (ite (and (<= 0 i1) (<= i1 2)) true false)) true))

;; "int__content'result'unused"
(define-fun int__contentqtresultqtunused4 () Int
  i1)

;; "infix ='result'unused"
(define-fun infix_eqqtresultqtunused () Bool
  (ite (= i1 0) true false))

;; "H"
(assert (not (= i1 0)))

;; "int__content'result'unused"
(define-fun int__contentqtresultqtunused5 () Int
  i1)

;; "o"
(define-fun o20 () Int
  (- i1 1))

;; "infix -'result'unused"
(define-fun infix_mnqtresultqtunused () Int
  o20)

(declare-const i2 Int)

;; "i'unused"
(define-fun iqtunused2 () int__ref
  (int__refqtmk i2))

;; "H"
(assert (= i2 o20))

;; "o"
(define-fun o21 () (_ BitVec 32)
  ((_ int2bv 32) 8))

;; "of_int'result'unused"
(define-fun of_intqtresultqtunused1 () (_ BitVec 32)
  o21)

;; "t__content'result'unused"
(define-fun t__contentqtresultqtunused4 () (_ BitVec 32)
  x2)

;; "o"
(define-fun o22 () (_ BitVec 32)
  (bvlshr x2 o21))

;; "lsr_bv'result'unused"
(define-fun lsr_bvqtresultqtunused1 () (_ BitVec 32)
  o22)

(declare-const x3 (_ BitVec 32))

;; "x'unused"
(define-fun xqtunused3 () t__ref
  (t__refqtmk x3))

;; "H"
(assert (= x3 o22))

;; "t__content'result'unused"
(define-fun t__contentqtresultqtunused5 () (_ BitVec 32)
  x3)

;; "o"
(define-fun o23 () (_ BitVec 32)
  (bvand x3 #x000000FF))

;; "bw_and'result'unused"
(define-fun bw_andqtresultqtunused2 () (_ BitVec 32)
  o23)

;; "o"
(define-fun o24 () (_ BitVec 32)
  ((_ zero_extend 24) #xFF))

;; "toBig'result'unused"
(define-fun toBigqtresultqtunused4 () (_ BitVec 32)
  o24)

;; "o"
(define-fun o25 () (_ BitVec 32)
  ((_ zero_extend 24) #x00))

;; "toBig'result'unused"
(define-fun toBigqtresultqtunused5 () (_ BitVec 32)
  o25)

;; "range_check_'result'unused"
(define-fun range_check_qtresultqtunused2 () (_ BitVec 32)
  o23)

;; "o"
(define-fun o26 () (_ BitVec 8)
  ((_ extract 7 0) o23))

;; "toSmall'result'unused"
(define-fun toSmallqtresultqtunused2 () (_ BitVec 8)
  o26)

(declare-const o27 byte)

;; "Ensures"
(assert (= (to_rep o27) o26))

;; "of_rep'result'unused"
(define-fun of_repqtresultqtunused2 () byte
  o27)

;; "o"
(define-fun o28 () byte__init_wrapper
  (byte__init_wrapperqtmk o27 true))

;; "to_wrapper'result'unused"
(define-fun to_wrapperqtresultqtunused2 () byte__init_wrapper
  o28)

;; "int__content'result'unused"
(define-fun int__contentqtresultqtunused6 () Int
  i2)

;; "map__content'result'unused"
(define-fun map__contentqtresultqtunused4 () map1
  output3)

;; "o"
(define-fun o29 () map1
  (set output3 i2 o28))

;; "set'result'unused"
(define-fun setqtresultqtunused2 () map1
  o29)

(declare-const output4 map1)

;; "output'unused"
(define-fun outputqtunused4 () map__ref
  (map__refqtmk output4))

;; "H"
(assert (= output4 o29))

;; "int__content'result'unused"
(define-fun int__contentqtresultqtunused7 () Int
  i2)

;; "map__content'result'unused"
(define-fun map__contentqtresultqtunused5 () map1
  output4)

;; "H"
(assert (<= i2 3))

;; Goal "def'vc"
;; File "sparknacl-utils.ads", line 20, characters 0-0
(assert
  (not (<= 0 i2)))

(check-sat)
